NAME: random-32-3937
TYPE: TSP
COMMENT: size=32 seed=3937
DIMENSION: 66
EDGE_WEIGHT_TYPE: EUC_2D
NODE_COORD_SECTION
+0 159 814
-0 159 814
+1 651 150
-1 33 902
+2 773 20
-2 957 137
+3 667 362
-3 949 316
+4 25 663
-4 757 283
+5 890 512
-5 587 148
+6 563 343
-6 549 108
+7 453 175
-7 688 962
+8 393 837
-8 611 197
+9 293 494
-9 576 891
+10 195 68
-10 526 477
+11 890 23
-11 194 766
+12 547 963
-12 938 1
+13 804 474
-13 58 345
+14 183 154
-14 997 125
+15 547 100
-15 709 856
+16 589 493
-16 40 317
+17 679 591
-17 989 933
+18 765 922
-18 510 2
+19 543 773
-19 519 149
+20 182 107
-20 259 67
+21 983 449
-21 379 363
+22 289 20
-22 210 616
+23 678 494
-23 55 832
+24 458 258
-24 586 83
+25 32 715
-25 17 642
+26 934 696
-26 976 879
+27 190 634
-27 266 385
+28 664 593
-28 375 421
+29 91 324
-29 5 133
+30 994 502
-30 461 239
+31 180 298
-31 157 842
+32 958 644
-32 330 156
PRECEDENCE_SECTION
+0 -0
+1 -1
+2 -2
+3 -3
+4 -4
+5 -5
+6 -6
+7 -7
+8 -8
+9 -9
+10 -10
+11 -11
+12 -12
+13 -13
+14 -14
+15 -15
+16 -16
+17 -17
+18 -18
+19 -19
+20 -20
+21 -21
+22 -22
+23 -23
+24 -24
+25 -25
+26 -26
+27 -27
+28 -28
+29 -29
+30 -30
+31 -31
+32 -32
EOF
